
(set-logic BV)

(define-fun shr1 ((x (BitVec 64))) (BitVec 64) (bvlshr x #x0000000000000001))
(define-fun shr4 ((x (BitVec 64))) (BitVec 64) (bvlshr x #x0000000000000004))
(define-fun shr16 ((x (BitVec 64))) (BitVec 64) (bvlshr x #x0000000000000010))
(define-fun shl1 ((x (BitVec 64))) (BitVec 64) (bvshl x #x0000000000000001))
(define-fun if0 ((x (BitVec 64)) (y (BitVec 64)) (z (BitVec 64))) (BitVec 64) (ite (= x #x0000000000000001) y z))
(define-fun func24  ((A (BitVec 64)) (B (BitVec 64)) (C (BitVec 64)) (D (BitVec 64)) ) (BitVec 64) (bvand (bvlshr (bvlshr C  D ) B ) A ))
(define-fun func25  ((A (BitVec 64)) (B (BitVec 64)) (C (BitVec 64)) ) (BitVec 64) (bvand (bvlshr B  C ) A ))
(define-fun func26  ((A (BitVec 64)) (B (BitVec 64)) ) (BitVec 64) (bvand (bvlshr B  #x0000000000000001 ) A ))
(define-fun func27  ((A (BitVec 64)) (B (BitVec 64)) ) (BitVec 64) (bvand (bvlshr B  #x0000000000000010 ) A ))
(define-fun func28  ((A (BitVec 64)) (B (BitVec 64)) ) (BitVec 64) (bvand (bvlshr B  #x0000000000000004 ) A ))
(define-fun func29  ((A (BitVec 64)) (B (BitVec 64)) ) (BitVec 64) (bvand (bvlshr A  B ) #x0000000000000001 ))
(define-fun func30  ((A (BitVec 64)) ) (BitVec 64) (bvand A  #x0000000000000001 ))
(define-fun func31  ((A (BitVec 64)) (B (BitVec 64)) (C (BitVec 64)) (D (BitVec 64)) ) (BitVec 64) (bvlshr (bvlshr (bvlshr C  D ) B ) A ))
(define-fun func32  ((A (BitVec 64)) (B (BitVec 64)) (C (BitVec 64)) ) (BitVec 64) (bvlshr (bvlshr (bvlshr C  #x0000000000000010 ) B ) A ))
(define-fun func33  ((A (BitVec 64)) (B (BitVec 64)) (C (BitVec 64)) ) (BitVec 64) (bvlshr (bvlshr (bvlshr B  C ) A ) #x0000000000000004 ))
(define-fun func34  ((A (BitVec 64)) (B (BitVec 64)) ) (BitVec 64) (bvlshr (bvlshr (bvlshr B  #x0000000000000010 ) A ) #x0000000000000004 ))
(define-fun func35  ((A (BitVec 64)) (B (BitVec 64)) (C (BitVec 64)) ) (BitVec 64) (bvlshr (bvlshr (bvlshr B  C ) #x0000000000000004 ) A ))
(define-fun func36  ((A (BitVec 64)) (B (BitVec 64)) (C (BitVec 64)) ) (BitVec 64) (bvlshr (bvlshr B  C ) A ))
(define-fun func37  ((A (BitVec 64)) (B (BitVec 64)) ) (BitVec 64) (bvlshr (bvlshr B  #x0000000000000010 ) A ))
(define-fun func38  ((A (BitVec 64)) (B (BitVec 64)) ) (BitVec 64) (bvlshr (bvlshr B  #x0000000000000004 ) A ))
(define-fun func39  ((A (BitVec 64)) (B (BitVec 64)) ) (BitVec 64) (bvlshr (bvlshr B  #x0000000000000001 ) A ))
(define-fun func40  ((A (BitVec 64)) (B (BitVec 64)) ) (BitVec 64) (bvlshr (bvlshr A  B ) #x0000000000000001 ))
(define-fun func41  ((A (BitVec 64)) (B (BitVec 64)) ) (BitVec 64) (bvlshr (bvlshr A  B ) #x0000000000000004 ))
(define-fun func42  ((A (BitVec 64)) (B (BitVec 64)) ) (BitVec 64) (bvlshr A  B ))
(define-fun func43  ((A (BitVec 64)) (B (BitVec 64)) (C (BitVec 64)) ) (BitVec 64) (bvlshr (bvshl B  C ) A ))
(define-fun func44  ((A (BitVec 64)) (B (BitVec 64)) ) (BitVec 64) (bvlshr (bvshl B  #x0000000000000001 ) A ))
(define-fun func45  ((A (BitVec 64)) (B (BitVec 64)) ) (BitVec 64) (bvlshr (bvshl A  B ) #x0000000000000004 ))
(define-fun func46  ((A (BitVec 64)) (B (BitVec 64)) (C (BitVec 64)) ) (BitVec 64) (bvlshr (bvadd B  C ) A ))
(define-fun func47  ((A (BitVec 64)) (B (BitVec 64)) ) (BitVec 64) (bvlshr (bvnot B ) A ))
(define-fun func48  ((A (BitVec 64)) ) (BitVec 64) (bvlshr (bvnot A ) #x0000000000000010 ))
(define-fun func49  ((A (BitVec 64)) (B (BitVec 64)) (C (BitVec 64)) ) (BitVec 64) (bvor (bvlshr B  C ) A ))
(define-fun func50  ((A (BitVec 64)) ) (BitVec 64) (bvor A  #x0000000000000001 ))
(define-fun func51  ((A (BitVec 64)) (B (BitVec 64)) (C (BitVec 64)) ) (BitVec 64) (bvshl (bvlshr B  C ) A ))
(define-fun func52  ((A (BitVec 64)) (B (BitVec 64)) ) (BitVec 64) (bvshl (bvlshr B  #x0000000000000001 ) A ))
(define-fun func53  ((A (BitVec 64)) (B (BitVec 64)) ) (BitVec 64) (bvshl (bvlshr A  B ) #x0000000000000001 ))
(define-fun func55  ((A (BitVec 64)) (B (BitVec 64)) (C (BitVec 64)) ) (BitVec 64) (bvadd (bvlshr B  C ) A ))
(define-fun func56  ((A (BitVec 64)) ) (BitVec 64) (bvadd A  #x0000000000000001 ))
(define-fun func57  ((A (BitVec 64)) (B (BitVec 64)) (C (BitVec 64)) ) (BitVec 64) (bvadd (bvshl B  C ) A ))
(define-fun func58  ((A (BitVec 64)) (B (BitVec 64)) ) (BitVec 64) (bvadd (bvshl B  #x0000000000000001 ) A ))
(define-fun func59  ((A (BitVec 64)) (B (BitVec 64)) ) (BitVec 64) (bvnot (bvshl (bvlshr A  B ) #x0000000000000001 )))
(define-fun func60  ((A (BitVec 64)) ) (BitVec 64) (bvnot (bvshl A  #x0000000000000001 )))
(synth-fun f ( (x (BitVec 64))) (BitVec 64)
(
(Start (BitVec 64) (
   #x0000000000000000
   #x0000000000000001
   x
   (func24 Start Start Start Start)
   (func26 Start Start)
   (func27 Start Start)
   (func28 Start Start)
   (func29 Start Start)
   (func33 Start Start Start)
   (func36 Start Start Start)
   (func42 Start Start)
   (func43 Start Start Start)
   (func44 Start Start)
   (func45 Start Start)
   (func47 Start Start)
   (func49 Start Start Start)
   (func50 Start)
   (func52 Start Start)
   (func53 Start Start)
   (func55 Start Start Start)
   (func57 Start Start Start)
   (func59 Start Start)
   (shl1 Start)
   (bvor Start Start)
   (bvxor Start Start)
   (if0 Start Start Start)
))
))
(constraint (= (f #x68f5f27f5a3a5226) #x068f5f27f5a3a522))
(constraint (= (f #xdb8d8bb988bbfafb) #x0db8d8bb988bbfaf))
(constraint (= (f #xbebe5de3e31aa39c) #x0bebe5de3e31aa39))
(constraint (= (f #x06d77e6c9ed8b8b6) #x006d77e6c9ed8b8b))
(constraint (= (f #x88a8699b23bb3fe5) #x088a8699b23bb3fe))
(constraint (= (f #x238c10fdc36ef2af) #x0000000000000001))
(constraint (= (f #xbb0f29a363eb90c7) #x0000000000000001))
(constraint (= (f #xdae0aadf16ad0c33) #x0000000000000001))
(constraint (= (f #x096b347ad86b5a79) #x0000000000000001))
(constraint (= (f #x1e165eaa48ed6f48) #x0000000000000000))
(constraint (= (f #xfaf94b8433b68086) #x0faf94b8433b6808))
(constraint (= (f #x4e1d64a66b366ae3) #x04e1d64a66b366ae))
(constraint (= (f #x1b6f1544e951d787) #x01b6f1544e951d78))
(constraint (= (f #xbb7bd68a4fd2f78d) #x0bb7bd68a4fd2f78))
(constraint (= (f #x9ed579bd78b222be) #x09ed579bd78b222b))
(constraint (= (f #x7050f0810c3d58da) #x07050f0810c3d58d))
(constraint (= (f #x0c3030a4941d7582) #x00c3030a4941d758))
(constraint (= (f #x16960030c03d052d) #x016960030c03d052))
(constraint (= (f #x4a1c16830c3d0460) #x04a1c16830c3d046))
(constraint (= (f #x705849214a5bf834) #x0705849214a5bf83))
(constraint (= (f #x8000000000daea15) #x08000000000daea1))
(constraint (= (f #x00000000009ed8be) #x000000000009ed8b))
(constraint (= (f #x8000000000da1731) #x08000000000da173))
(constraint (= (f #x0000000000b84375) #x00000000000b8437))
(constraint (= (f #x0000000000fe071b) #x00000000000fe071))
(constraint (= (f #xaaaaaaaaaaaaaaab) #x0aaaaaaaaaaaaaaa))
(constraint (= (f #x8714320de8a0580d) #x0000000000000001))
(constraint (= (f #xefbbe6240547477a) #x0000000000000000))
(constraint (= (f #x8565d67ab442e976) #x0000000000000000))
(constraint (= (f #x0115f4157665aede) #x0000000000000000))
(constraint (= (f #x754ca3345204bf10) #x0000000000000000))
(constraint (= (f #x0000000000edc39c) #x0000000000000001))
(constraint (= (f #x0000000000ab4cf5) #x0000000000000001))
(constraint (= (f #x8000000000ee08c0) #x0000000000000001))
(constraint (= (f #x8000000000ab225c) #x0000000000000001))
(constraint (= (f #x8000000000a8e855) #x0000000000000001))
(constraint (= (f #x3c34b0907011f928) #x03c34b0907011f92))
(constraint (= (f #xd0f0a40a507128c4) #x0d0f0a40a507128c))
(constraint (= (f #x4284812924315955) #x0428481292431595))
(constraint (= (f #x12c14002509500e9) #x012c14002509500e))
(constraint (= (f #x0f0609481c13cbe0) #x00f0609481c13cbe))
(constraint (= (f #x8000000000d55464) #x08000000000d5546))
(constraint (= (f #x8000000000b7b1a7) #x08000000000b7b1a))
(constraint (= (f #x8000000000b2b42e) #x08000000000b2b42))
(constraint (= (f #x8000000000f62ac8) #x08000000000f62ac))
(constraint (= (f #x0000000000d55dab) #x00000000000d55da))
(constraint (= (f #x0000000000e36fba) #x0000000000000001))
(constraint (= (f #x0000000000a60a86) #x0000000000000001))
(constraint (= (f #x8000000000a757d3) #x0000000000000001))
(constraint (= (f #x80000000008136ee) #x0000000000000001))
(constraint (= (f #x000000000084e5f8) #x0000000000000001))
(constraint (= (f #x0000000000d3bea3) #x00000000000d3bea))
(constraint (= (f #x000000000097506c) #x0000000000097506))
(constraint (= (f #x8000000000f1bc3f) #x08000000000f1bc3))
(constraint (= (f #x8000000000d10f58) #x08000000000d10f5))
(constraint (= (f #x0000000000b5f393) #x00000000000b5f39))
(check-synth)
